S = 4;
start = [|0,11,0,16,0,0,0,0,0,0,0,13,0,0,0,0|
0,0,15,0,0,12,6,0,0,0,0,0,0,5,10,7|
0,0,0,0,0,0,0,0,0,0,4,0,0,0,14,0|
0,1,0,12,0,0,0,10,0,0,0,0,15,0,2,0|
0,0,6,0,0,0,0,0,0,0,0,0,0,0,9,0|
16,0,0,0,0,0,0,0,9,12,0,0,0,0,0,0|
0,0,13,0,0,0,0,16,0,0,0,0,0,0,0,0|
0,0,0,0,0,0,0,0,0,8,7,0,0,0,13,0|
0,0,0,0,7,2,0,0,0,0,0,0,0,16,0,0|
0,0,0,8,0,0,0,0,15,0,16,0,0,0,0,0|
0,0,0,0,0,16,15,0,0,0,0,0,0,1,12,0|
7,9,0,0,5,0,0,11,0,0,0,0,0,2,0,0|
0,15,2,0,3,11,0,0,0,0,0,0,0,0,7,0|
0,0,0,0,0,0,0,0,0,0,0,0,0,0,0,0|
0,5,0,0,0,0,0,7,8,0,0,0,0,0,6,0|
0,0,0,6,0,0,0,0,7,0,0,0,2,0,8,0|];